W=6;
H=3;

MAX_TIME=21;
MAX_TRACKS=8;

TARGET=(3,6);

TRAINS=[(1,6,LEFT),(1,3,LEFT)];

INIT_POS=[
(1,2,STRAIGHT_RL),
(1,3,STRAIGHT_RL),
(1,5,SWITCH_R_L_D),
(1,6,STRAIGHT_RL),
(2,5,STRAIGHT_TD),
(3,5,CORNER_TR),
(3,6,STRAIGHT_RL),
];
TUNNEL_PAIRS=[];

GATES=[
(1,2,1,false),
];
ACTIVATIONS=[
(2,5,1),
];

DSWITCHES=[];

STATIONS=[];
